95 59 98 85 99 96 
33 65 71 66 20 32 70 
21 73 75 56 4 54 
6 94 
31 62 19 90 10 
57 87 97 13 
83 45 82 8 84 17 60 89 
30 51 9 81 3 68 24 80 
5 61 16 86 91 100 93 
63 11 64 49 48 
72 39 23 67 55 25 
47 36 46 
92 42 14 44 38 43 37 
53 40 26 
2 15 41 22 74 58 
27 69 76 50 1 
28 12 29 79 78 34 35 77 
52 88 7 18 
